100 275446
57 60 84 91 35 24 74 46 62 1 81 21 3 86 4 96 63 73 71 9 14 67 58 11 31 75 27 13 76 39 85 34 97 5 93 22 54 45 42 100 82 19 40 51 37 52 90 41 26 77 66 2 47 38 61 44 16 69 10 32 43 36 72 23 59 80 6 98 99 88 78 70 89 12 17 53 83 95 68 28 25 55 7 8 94 79 29 56 65 87 50 48 18 20 92 49 33 30 64 15 
